WARNING: for repeatability, setting FPU to use double precision
============================[ Problem Statistics ]=============================
|                                                                             |
|  Number of variables:            50                                         |
|  Number of clauses:             218                                         |
|  Parse time:                   0.00 s                                       |
|                                                                             |
============================[ Search Statistics ]==============================
| Conflicts |          ORIGINAL         |          LEARNT          | Progress |
|           |    Vars  Clauses Literals |    Limit  Clauses Lit/Cl |          |
===============================================================================
===============================================================================
restarts              : 1
conflicts             : 94             (60102 /sec)
decisions             : 109            (0.00 % random) (69693 /sec)
propagations          : 1322           (845269 /sec)
conflict literals     : 324            (20.78 % deleted)
Memory used           : 20.00 MB
CPU time              : 0.001564 s

UNSATISFIABLE
